Gurobi Optimizer version 9.1.0 build v9.1.0rc0 (linux64)
Thread count: 8 physical cores, 16 logical processors, using up to 16 threads
Optimize a model with 191914 rows, 180720 columns and 1051770 nonzeros
Model fingerprint: 0xb82317d1
Variable types: 0 continuous, 180720 integer (180720 binary)
Coefficient statistics:
  Matrix range     [1e+00, 1e+00]
  Objective range  [1e+01, 5e+04]
  Bounds range     [1e+00, 1e+00]
  RHS range        [1e+00, 5e+02]
Presolve added 0 rows and 4970 columns
Presolve removed 30 rows and 0 columns
Presolve time: 4.51s
Presolved: 191884 rows, 185690 columns, 766710 nonzeros
Variable types: 0 continuous, 185690 integer (185690 binary)
Found heuristic solution: objective 527125.00000

Concurrent LP optimizer: primal simplex, dual simplex, and barrier
Showing barrier log only...

Root barrier log...

Ordering time: 0.06s

Barrier statistics:
 Dense cols : 360
 AA' NZ     : 5.947e+05
 Factor NZ  : 3.756e+06 (roughly 200 MBytes of memory)
 Factor Ops : 1.010e+09 (less than 1 second per iteration)
 Threads    : 6

                  Objective                Residual
Iter       Primal          Dual         Primal    Dual     Compl     Time
   0   1.91933596e+08 -2.88501431e+08  2.87e+02 3.08e+01  1.72e+04     8s
   1   9.38410701e+06 -3.06926067e+08  2.01e+01 1.01e+04  1.58e+03     8s
   2   2.27527048e+06 -2.85479847e+08  3.95e+00 8.81e+03  7.16e+02     9s
   3   9.29986986e+05 -1.09517481e+08  8.74e-01 2.65e+03  2.27e+02     9s
   4   8.72747155e+05 -7.65285729e+07  7.42e-01 1.79e+03  1.57e+02    10s
   5   7.40735259e+05 -5.69466304e+07  4.16e-01 1.29e+03  1.13e+02    10s
   6   5.85302063e+05 -1.12913762e+07  4.27e-02 2.32e+02  2.18e+01    10s
   7   5.77759595e+05 -1.04311972e+06  3.46e-02 4.03e+01  2.95e+00    11s
   8   5.33584005e+05 -4.13817592e+05  2.37e-02 2.26e+01  1.72e+00    11s
   9   5.07334120e+05 -6.11145173e+04  1.80e-02 1.23e+01  1.03e+00    12s
  10   4.76469234e+05  1.78974278e+05  1.25e-02 5.40e+00  5.34e-01    12s
  11   4.57708037e+05  3.13256169e+05  9.57e-03 1.67e+00  2.56e-01    13s
  12   4.41026190e+05  3.38084702e+05  7.31e-03 1.07e+00  1.82e-01    13s
  13   4.36029720e+05  3.49097303e+05  6.63e-03 8.11e-01  1.53e-01    14s
  14   4.28220027e+05  3.57599595e+05  5.59e-03 6.02e-01  1.24e-01    14s
  15   4.21197577e+05  3.64963142e+05  4.72e-03 4.30e-01  9.89e-02    15s
  16   4.14493972e+05  3.69390838e+05  3.84e-03 3.20e-01  7.93e-02    16s
  17   4.08631887e+05  3.74586259e+05  3.12e-03 2.07e-01  5.97e-02    16s
  18   4.04631776e+05  3.77185210e+05  2.61e-03 1.50e-01  4.80e-02    17s
  19   3.99029177e+05  3.79178616e+05  1.93e-03 1.05e-01  3.47e-02    18s
  20   3.96609773e+05  3.80462079e+05  1.64e-03 7.69e-02  2.82e-02    18s
  21   3.93635892e+05  3.81374911e+05  1.25e-03 5.76e-02  2.14e-02    19s
  22   3.91115594e+05  3.82124545e+05  9.28e-04 4.18e-02  1.57e-02    19s
  23   3.89594789e+05  3.82648583e+05  7.22e-04 3.21e-02  1.21e-02    20s
  24   3.87892650e+05  3.83024255e+05  4.91e-04 2.49e-02  8.50e-03    21s
  25   3.87196608e+05  3.83306957e+05  3.97e-04 1.95e-02  6.79e-03    21s
  26   3.86380330e+05  3.83476915e+05  2.86e-04 1.64e-02  5.07e-03    22s
  27   3.86019767e+05  3.83758682e+05  2.35e-04 1.12e-02  3.94e-03    22s
  28   3.85717389e+05  3.83873623e+05  1.92e-04 9.03e-03  3.21e-03    23s
  29   3.85418162e+05  3.83993680e+05  1.49e-04 6.75e-03  2.48e-03    24s
  30   3.85229235e+05  3.84023076e+05  1.22e-04 6.22e-03  2.11e-03    24s
  31   3.85065471e+05  3.84067302e+05  1.01e-04 5.40e-03  1.74e-03    24s
  32   3.85050092e+05  3.84118115e+05  9.83e-05 4.35e-03  1.62e-03    25s
  33   3.84967669e+05  3.84139286e+05  8.65e-05 3.97e-03  1.44e-03    25s
  34   3.84780272e+05  3.84181328e+05  6.01e-05 3.31e-03  1.05e-03    26s
  35   3.84710625e+05  3.84231471e+05  5.06e-05 2.51e-03  8.35e-04    26s
  36   3.84650070e+05  3.84266303e+05  4.17e-05 1.92e-03  6.68e-04    27s
  37   3.84595547e+05  3.84284319e+05  3.35e-05 1.60e-03  5.42e-04    27s
  38   3.84567879e+05  3.84308562e+05  2.93e-05 1.17e-03  4.51e-04    28s
  39   3.84522904e+05  3.84320825e+05  2.24e-05 9.52e-04  3.52e-04    28s
  40   3.84495988e+05  3.84331244e+05  1.84e-05 7.58e-04  2.86e-04    29s
  41   3.84484156e+05  3.84333478e+05  1.66e-05 7.21e-04  2.62e-04    29s
  42   3.84459754e+05  3.84343663e+05  1.29e-05 5.43e-04  2.02e-04    30s
  43   3.84449668e+05  3.84348123e+05  1.13e-05 4.61e-04  1.77e-04    30s
  44   3.84428609e+05  3.84352564e+05  7.99e-06 3.86e-04  1.33e-04    31s
  45   3.84420665e+05  3.84357630e+05  6.79e-06 3.04e-04  1.10e-04    31s
  46   3.84412381e+05  3.84360261e+05  5.55e-06 2.59e-04  9.08e-05    32s
  47   3.84407349e+05  3.84364844e+05  4.85e-06 1.85e-04  7.38e-05    32s
  48   3.84399859e+05  3.84367156e+05  3.68e-06 1.46e-04  5.68e-05    33s
  49   3.84391618e+05  3.84369853e+05  2.43e-06 1.01e-04  3.78e-05    33s
  50   3.84390127e+05  3.84370701e+05  2.21e-06 8.77e-05  3.38e-05    34s
  51   3.84388376e+05  3.84372030e+05  1.94e-06 6.76e-05  2.84e-05    34s
  52   3.84386206e+05  3.84372917e+05  1.58e-06 5.41e-05  2.30e-05    35s
  53   3.84384195e+05  3.84373926e+05  1.28e-06 3.85e-05  1.78e-05    35s
  54   3.84382701e+05  3.84374331e+05  1.05e-06 3.24e-05  1.45e-05    36s
  55   3.84382221e+05  3.84374552e+05  9.71e-07 2.91e-05  1.33e-05    36s
  56   3.84380367e+05  3.84375105e+05  6.72e-07 2.00e-05  9.10e-06    37s
  57   3.84379868e+05  3.84375329e+05  5.87e-07 1.64e-05  7.84e-06    37s
  58   3.84378976e+05  3.84375532e+05  4.33e-07 1.32e-05  5.96e-06    37s
  59   3.84378068e+05  3.84375849e+05  2.92e-07 8.24e-06  3.83e-06    38s
  60   3.84377963e+05  3.84375953e+05  2.74e-07 6.66e-06  3.46e-06    38s
  61   3.84377726e+05  3.84376102e+05  2.31e-07 4.59e-06  2.79e-06    39s
  62   3.84377078e+05  3.84376231e+05  1.14e-07 2.70e-06  1.46e-06    39s
  63   3.84376715e+05  3.84376407e+05  5.03e-08 1.25e-07  5.26e-07    39s
  64   3.84376561e+05  3.84376416e+05  2.28e-08 1.24e-07  2.48e-07    40s
  65   3.84376521e+05  3.84376422e+05  1.61e-08 6.01e-08  1.69e-07    40s
  66   3.84376483e+05  3.84376423e+05  9.49e-09 4.49e-08  1.03e-07    41s
  67   3.84376443e+05  3.84376424e+05  4.44e-09 3.82e-08  3.31e-08    41s
  68   3.84376443e+05  3.84376424e+05  7.96e-09 3.72e-08  3.22e-08    41s
  69   3.84376443e+05  3.84376424e+05  7.95e-09 3.71e-08  3.22e-08    42s
  70   3.84376443e+05  3.84376424e+05  1.29e-08 3.49e-08  3.21e-08    42s

Barrier solved model in 70 iterations and 41.89 seconds
Optimal objective 3.84376443e+05


Root crossover log...

   51206 DPushes remaining with DInf 0.0000000e+00                42s
     465 DPushes remaining with DInf 0.0000000e+00                45s
       0 DPushes remaining with DInf 0.0000000e+00                46s

    1607 PPushes remaining with PInf 2.0555006e-05                47s
       0 PPushes remaining with PInf 0.0000000e+00                47s

  Push phase complete: Pinf 0.0000000e+00, Dinf 2.4570076e+00     47s


Root simplex log...

Iteration    Objective       Primal Inf.    Dual Inf.      Time
    8753    3.8437643e+05   0.000000e+00   2.457008e+00     47s
    8761    3.8437643e+05   0.000000e+00   0.000000e+00     47s
    8761    3.8437643e+05   0.000000e+00   0.000000e+00     48s

Solved with barrier

Root relaxation: objective 3.843764e+05, 8761 iterations, 41.13 seconds

    Nodes    |    Current Node    |     Objective Bounds      |     Work
 Expl Unexpl |  Obj  Depth IntInf | Incumbent    BestBd   Gap | It/Node Time

     0     0 384376.427    0 19940 527125.000 384376.427  27.1%     -   50s
H    0     0                    423969.00000 384376.427  9.34%     -   51s
H    0     0                    418246.00000 384376.427  8.10%     -   53s
     0     0 384380.054    0 19916 418246.000 384380.054  8.10%     -   68s
H    0     0                    418238.00000 384380.054  8.10%     -   70s
H    0     0                    416650.00000 384380.054  7.75%     -   74s
     0     0 384380.162    0 19920 416650.000 384380.162  7.75%     -   76s
     0     0 384381.697    0 19911 416650.000 384381.697  7.74%     -   87s
H    0     0                    416642.00000 384381.697  7.74%     -   90s
H    0     0                    415365.00000 384381.697  7.46%     -   91s
     0     0 384381.701    0 19912 415365.000 384381.701  7.46%     -   93s
     0     0 384381.701    0 19912 415365.000 384381.701  7.46%     -  108s
H    0     0                    414911.00000 384381.894  7.36%     -  159s
H    0     0                    413569.00000 384381.894  7.06%     -  159s
H    0     2                    412524.00000 384381.894  6.82%     -  166s
     0     2 384381.894    0 19912 412524.000 384381.894  6.82%     -  166s
     1     3 384449.717    1 19962 412524.000 384381.894  6.82%  6754  300s

Cutting planes:
  Gomory: 4

Explored 2 nodes (21338 simplex iterations) in 300.07 seconds
Thread count was 16 (of 16 available processors)

Solution count 10: 412524 413569 414911 ... 527125

Time limit reached
Best objective 4.125240000000e+05, best bound 3.843820000000e+05, gap 6.8219%

User-callback calls 113564, time in user-callback 1.45 sec
['/opt/local/stow/gurobi910/linux64/lib/libgurobi91.so']
Result: runtime=300.00sec; objective=412524; gap=0.0682%
Solution written to /autofs/unityaccount/cremi/mdeboute/Bureau/multi-period-flp/solution//instSingle_I30_J500_T12_0_result.txt
